p cnf 37 102
a 27 22 0
e 1 2 3 4 5 6 7 8 9 10 11 12 13 14 15 16 17 18 19 20 21 23 24 25 26 28 29 30 31 32 33 34 35 36 37 0
3 -1 0
3 -2 0
1 2 -3 0
-5 -2 -6 0
5 2 -6 0
-5 2 6 0
5 -2 6 0
-7 4 0
-7 -6 0
-4 6 7 0
-1 5 -8 0
1 -5 -8 0
-1 -5 8 0
1 5 8 0
9 -7 0
9 -8 0
7 8 -9 0
-10 1 0
-10 -5 0
-1 5 10 0
-9 10 -11 0
9 -10 -11 0
-9 -10 11 0
9 10 11 0
12 -3 0
12 11 0
3 -11 -12 0
13 -5 0
13 5 0
-14 6 0
-14 13 0
-6 -13 14 0
-15 2 -16 0
15 -2 -16 0
-15 -2 16 0
15 2 16 0
14 -16 -17 0
-14 16 -17 0
14 16 17 0
-14 -16 17 0
2 17 -18 0
-2 -17 -18 0
2 -17 18 0
-2 17 18 0
19 6 -20 0
-19 -6 -20 0
19 -6 20 0
-19 6 20 0
23 -21 0
23 22 0
21 -22 -23 0
23 22 -24 0
-23 -22 -24 0
23 -22 24 0
-23 22 24 0
-25 -20 0
-25 -24 0
20 24 25 0
-18 25 -26 0
18 -25 -26 0
-18 -25 26 0
18 25 26 0
-27 -12 0
-27 26 0
12 -26 27 0
13 21 -28 0
-13 -21 -28 0
13 -21 28 0
-13 21 28 0
-29 -4 0
-29 -19 0
4 19 29 0
-28 -29 -30 0
28 29 -30 0
-28 29 30 0
28 -29 30 0
31 27 0
31 -30 0
-27 30 -31 0
-32 -14 0
-32 -1 0
14 1 32 0
33 31 0
33 -32 0
-31 32 -33 0
-36 34 0
-36 35 0
-34 -35 36 0
33 36 -37 0
-33 -36 -37 0
33 -36 37 0
-33 36 37 0
-13 4 23 -24 1 3 0
-18 -6 -36 -32 0
9 1 20 -6 -8 4 -27 0
23 22 12 -30 -16 -6 24 0
10 -35 -2 -31 -16 34 0
-18 10 15 0
-11 -29 -18 -6 -22 -32 -37 0
-16 13 20 10 -30 0
-30 -4 25 2 13 -19 17 0
37 0
